p cnf 12 50 
-1 3 12 0
3 -10 4 0
-11 1 6 0
-2 6 -5 0
3 1 -6 0
-10 6 -7 0
-3 -2 9 0
-9 -3 -8 0
-10 -6 -8 0
-11 1 8 0
-1 10 11 0
1 -12 -3 0
6 -4 3 0
-2 -6 7 0
10 -8 -12 0
1 2 -9 0
-2 11 -3 0
-11 -7 2 0
-12 3 11 0
-2 1 8 0
10 8 -6 0
-4 -1 11 0
-5 4 2 0
11 6 -8 0
5 -4 1 0
-5 -7 -2 0
7 -6 -11 0
-3 -8 -6 0
11 -6 1 0
-10 1 -4 0
-11 -9 7 0
6 7 8 0
4 8 5 0
-6 -2 -11 0
-1 -10 -8 0
9 1 7 0
-10 -11 9 0
-2 7 -11 0
7 -3 -9 0
3 -1 -5 0
-4 -1 7 0
-9 -4 -1 0
1 7 -3 0
-11 6 3 0
-5 -3 9 0
-9 -12 2 0
-12 8 10 0
-5 4 -9 0
-5 -2 1 0
-12 7 9 0
